8
0, 407, 825, 584, 907, 602, 660, 635
407, 0, 615, 410, 503, 196, 254, 323
825, 615, 0, 241, 609, 618, 639, 870
584, 410, 241, 0, 590, 474, 513, 706
907, 503, 609, 590, 0, 319, 273, 488
602, 196, 618, 474, 319, 0, 58, 254
660, 254, 639, 513, 273, 58, 0, 251
635, 323, 870, 706, 488, 254, 251, 0
